10
1 0 21
2 1 13
3 0 13
4 0 12
4 1 3
5 0 35
5 2 47
5 3 39
5 4 32
6 0 15
6 1 60
6 2 32
6 3 18
6 4 27
6 5 58
7 0 43
7 1 54
7 3 2
7 5 18
7 6 55
8 0 29
8 1 46
8 2 26
8 5 17
8 6 23
9 0 59
9 2 17
9 3 33
9 4 60
9 8 20
